500
    1   655   655
    2   256   256
    3   896   896
    4   892   892
    5   346   346
    6   386   386
    7   927   927
    8   282   282
    9   508   508
   10    67    67
   11   165   165
   12   591   591
   13   981   981
   14    19    19
   15    95    95
   16   665   665
   17   893   893
   18   112   112
   19   822   822
   20   192   192
   21   995   995
   22   241   241
   23   679   679
   24     9     9
   25   596   596
   26   141   141
   27   256   256
   28  1000  1000
   29   228   228
   30   841   841
   31   528   528
   32   394   394
   33   645   645
   34    24    24
   35   188   188
   36   984   984
   37   961   961
   38   732   732
   39   890   890
   40   839   839
   41   277   277
   42   139   139
   43    11    11
   44   485   485
   45   156   156
   46   142   142
   47   514   514
   48   558   558
   49   956   956
   50   835   835
   51   636   636
   52   652   652
   53   978   978
   54   290   290
   55   795   795
   56   405   405
   57   805   805
   58   636   636
   59   587   587
   60   470   470
   61    33    33
   62   935   935
   63     7     7
   64   678   678
   65   707   707
   66   454   454
   67   289   289
   68   845   845
   69   300   300
   70   957   957
   71   237   237
   72   811   811
   73   212   212
   74   915   915
   75   280   280
   76   701   701
   77   156   156
   78   160   160
   79   106   106
   80   705   705
   81   151   151
   82    78    78
   83   277   277
   84   379   379
   85   190   190
   86   371   371
   87   273   273
   88    89    89
   89   239   239
   90   820   820
   91   558   558
   92   961   961
   93   609   609
   94   566   566
   95    29    29
   96   106   106
   97   119   119
   98   678   678
   99   252   252
  100   151   151
  101   206   206
  102   473   473
  103   412   412
  104   184   184
  105   493   493
  106   341   341
  107   624   624
  108   443   443
  109   520   520
  110   606   606
  111    75    75
  112   480   480
  113   489   489
  114   468   468
  115   742   742
  116   346   346
  117   644   644
  118   594   594
  119   958   958
  120    57    57
  121   492   492
  122   274   274
  123   278   278
  124   820   820
  125   399   399
  126   123   123
  127   486   486
  128   187   187
  129    51    51
  130   972   972
  131   472   472
  132   955   955
  133   164   164
  134   467   467
  135   850   850
  136   723   723
  137   860   860
  138   814   814
  139   333   333
  140   651   651
  141   845   845
  142   939   939
  143   409   409
  144   813   813
  145   598   598
  146   315   315
  147    11    11
  148   363   363
  149   903   903
  150   712   712
  151   412   412
  152   288   288
  153    26    26
  154   128   128
  155   591   591
  156   259   259
  157    32    32
  158   954   954
  159   782   782
  160   837   837
  161   253   253
  162   829   829
  163   745   745
  164   460   460
  165   930   930
  166   719   719
  167   941   941
  168   392   392
  169   533   533
  170    35    35
  171   685   685
  172   218   218
  173   319   319
  174   940   940
  175   816   816
  176   909   909
  177   730   730
  178   222   222
  179   111   111
  180   636   636
  181   332   332
  182   900   900
  183    48    48
  184   955   955
  185   348   348
  186    67    67
  187   971   971
  188   682   682
  189   120   120
  190   366   366
  191   233   233
  192   860   860
  193   905   905
  194    59    59
  195   452   452
  196   534   534
  197   844   844
  198   890   890
  199   144   144
  200   906   906
  201   997   997
  202   990   990
  203    36    36
  204   891   891
  205   938   938
  206   740   740
  207   516   516
  208   243   243
  209   849   849
  210   113   113
  211   302   302
  212   657   657
  213   687   687
  214   224   224
  215   854   854
  216    46    46
  217   150   150
  218   400   400
  219   801   801
  220   662   662
  221   674   674
  222   747   747
  223   659   659
  224   148   148
  225   945   945
  226   931   931
  227    37    37
  228   365   365
  229   589   589
  230   616   616
  231    62    62
  232    79    79
  233   871   871
  234   717   717
  235   429   429
  236   739   739
  237   609   609
  238   112   112
  239   352   352
  240   909   909
  241   599   599
  242   295   295
  243   756   756
  244   404   404
  245   995   995
  246   448   448
  247   906   906
  248   101   101
  249   773   773
  250   177   177
  251   714   714
  252   466   466
  253   923   923
  254   622   622
  255   543   543
  256   376   376
  257   306   306
  258   985   985
  259   535   535
  260   486   486
  261   145   145
  262   900   900
  263   981   981
  264   601   601
  265   358   358
  266   698   698
  267   868   868
  268   860   860
  269   936   936
  270   891   891
  271   618   618
  272   829   829
  273   649   649
  274   902   902
  275   414   414
  276   603   603
  277   117   117
  278   553   553
  279   704   704
  280   411   411
  281   251   251
  282    84    84
  283   724   724
  284   994   994
  285   887   887
  286   107   107
  287   427   427
  288   941   941
  289     1     1
  290   874   874
  291    46    46
  292   940   940
  293   510   510
  294   931   931
  295   183   183
  296   429   429
  297   696   696
  298   834   834
  299   398   398
  300    60    60
  301   173   173
  302   394   394
  303   764   764
  304   792   792
  305    81    81
  306   401   401
  307   872   872
  308   241   241
  309   281   281
  310   558   558
  311   348   348
  312   582   582
  313   550   550
  314   747   747
  315   947   947
  316   443   443
  317   945   945
  318   973   973
  319   841   841
  320   239   239
  321   209   209
  322   720   720
  323   166   166
  324   803   803
  325   790   790
  326   384   384
  327   985   985
  328   855   855
  329   673   673
  330   450   450
  331   886   886
  332   799   799
  333   770   770
  334    65    65
  335   387   387
  336   938   938
  337   997   997
  338   572   572
  339   293   293
  340   299   299
  341   194   194
  342   924   924
  343   225   225
  344   352   352
  345   824   824
  346   436   436
  347   633   633
  348   664   664
  349   254   254
  350   201   201
  351   494   494
  352   994   994
  353   174   174
  354   705   705
  355   701   701
  356   920   920
  357   654   654
  358   576   576
  359   591   591
  360    58    58
  361   499   499
  362    69    69
  363   448   448
  364   559   559
  365   596   596
  366   531   531
  367   580   580
  368   119   119
  369   344   344
  370   363   363
  371   817   817
  372   875   875
  373   558   558
  374    31    31
  375   885   885
  376    46    46
  377   375   375
  378    97    97
  379   525   525
  380    21    21
  381   922   922
  382   274   274
  383   286   286
  384   377   377
  385    84    84
  386   271   271
  387   188   188
  388   934   934
  389   745   745
  390   558   558
  391   797   797
  392   603   603
  393   683   683
  394   582   582
  395   433   433
  396   466   466
  397   550   550
  398   428   428
  399   257   257
  400    26    26
  401    46    46
  402   842   842
  403   368   368
  404   687   687
  405   254   254
  406   690   690
  407   698   698
  408   596   596
  409   510   510
  410   616   616
  411    16    16
  412   646   646
  413   480   480
  414   989   989
  415   205   205
  416   657   657
  417   775   775
  418   368   368
  419   921   921
  420   121   121
  421   652   652
  422   279   279
  423   687   687
  424   575   575
  425   878   878
  426   427   427
  427   804   804
  428   987   987
  429   485   485
  430   585   585
  431   567   567
  432   296   296
  433   764   764
  434   277   277
  435   967   967
  436   467   467
  437   329   329
  438   385   385
  439   398   398
  440   621   621
  441   633   633
  442   595   595
  443  1000  1000
  444   336   336
  445   957   957
  446   477   477
  447   831   831
  448   366   366
  449   667   667
  450   278   278
  451   767   767
  452   421   421
  453   451   451
  454   950   950
  455   617   617
  456   743   743
  457   671   671
  458   918   918
  459   574   574
  460   142   142
  461   885   885
  462   390   390
  463   538   538
  464   509   509
  465   740   740
  466   944   944
  467   746   746
  468   257   257
  469   241   241
  470   649   649
  471   811   811
  472   318   318
  473   269   269
  474   768   768
  475   441   441
  476   454   454
  477    52    52
  478   951   951
  479    72    72
  480   700   700
  481   853   853
  482    47    47
  483   107   107
  484   647   647
  485   953   953
  486   616   616
  487   919   919
  488   930   930
  489   362   362
  490   173   173
  491   706   706
  492   464   464
  493   305   305
  494   174   174
  495    77    77
  496   709   709
  497   268   268
  498    39    39
  499    20    20
  500   319   319
217655
